737333375754913964818546934554546368275545463345848191168558215594929396454545463212576758558231858582777526529264332794582179371492955647835537341955641397377983165281159286415838647462926412982947796253462893393545454554546941999415243711186592947661979552525281117683865647736529177956253438172655644556564264923224948558582368572761174928656428641323795585827728356471565655641385673178386498252898243452866281546744383493771292564999151618933815454677714535383556499995515515161833581846995424527336918454546797852552525289935245181696272454619196545461198214595837332467585829666445545469785434255283331875491285823137585585829374688461552833845463367557275467888252525287771265353834999424342817265647895261628639245454698755164252811745656565564113859567311595594927775535292648537553777235629114729565655641139586492355767277753538347898316525281115686591738564829123195855823791